Normalized Data/p03_24_normalized_split0.vrp
NAME:p03_24_NORMALIZED_split
BEST_KNOWN: 0
COMMENT: 0
DIMENSION: 400
CAPACITY: 100
EDGE_WEIGHT_FORMAT: FUNCTION
EDGE_WEIGHT_TYPE: EXACT_2D
NODE_COORD_SECTION
1 0.00000 0.00000
2 9 -19
3 9 -19
4 9 -19
5 -40 23
6 -40 23
7 -40 23
8 -40 23
9 -40 23
10 -23 23
11 -23 23
12 -23 23
13 36 30
14 36 30
15 36 30
16 36 30
17 -31 -8
18 -31 -8
19 -31 -8
20 -31 -8
21 -31 -8
22 -7 -9
23 -7 -9
24 -7 -9
25 -7 -9
26 -7 -9
27 -7 -9
28 -7 -9
29 -4 12
30 -4 12
31 -4 12
32 -5 -42
33 -5 -42
34 -5 -42
35 30 42
36 30 42
37 30 42
38 -35 -6
39 -35 -6
40 -35 -6
41 -35 -6
42 -35 -6
43 -26 34
44 -26 34
45 -26 34
46 -43 36
47 -43 36
48 -43 36
49 -43 36
50 -43 36
51 -43 36
52 -9 -15
53 -9 -15
54 -9 -15
55 49 30
56 49 30
57 49 30
58 49 30
59 49 30
60 49 30
61 -20 -37
62 -20 -37
63 -31 -42
64 -31 -42
65 -31 -42
66 -31 -42
67 44 -3
68 44 -3
69 22 -34
70 22 -34
71 22 -34
72 17 -37
73 17 -37
74 17 -37
75 17 -37
76 17 -37
77 17 -37
78 -3 -25
79 -3 -25
80 -3 -25
81 -3 -25
82 -3 -25
83 -21 32
84 -21 32
85 -21 32
86 -21 32
87 -21 32
88 36 15
89 36 15
90 36 15
91 31 -12
92 31 -12
93 31 -12
94 40 38
95 40 38
96 40 38
97 40 38
98 -16 42
99 -16 42
100 -16 42
101 -16 42
102 -16 42
103 -16 42
104 37 27
105 37 27
106 -9 -35
107 -9 -35
108 -9 -35
109 -28 12
110 -28 12
111 -28 12
112 -28 12
113 -28 12
114 -28 12
115 -15 18
116 -15 18
117 -15 18
118 24 29
119 24 29
120 50 15
121 50 15
122 50 15
123 50 15
124 50 15
125 -11 4
126 -11 4
127 -11 4
128 -11 4
129 -11 4
130 -11 4
131 -11 4
132 2 -42
133 2 -42
134 2 -42
135 2 -42
136 -20 13
137 -20 13
138 -20 13
139 -20 13
140 -35 37
141 -35 37
142 -35 37
143 -21 47
144 -21 47
145 -42 44
146 -42 44
147 -42 44
148 -34 -42
149 -34 -42
150 -34 -42
151 -34 -42
152 -34 -42
153 -34 -42
154 -34 -42
155 49 -41
156 49 -41
157 49 -41
158 49 -41
159 49 -41
160 -28 38
161 -28 38
162 -28 38
163 -28 38
164 -33 38
165 -33 38
166 -33 38
167 -33 38
168 49 -13
169 49 -13
170 49 -13
171 49 -13
172 49 -13
173 49 -13
174 45 32
175 45 32
176 45 32
177 45 32
178 45 32
179 45 32
180 45 32
181 -50 -23
182 -50 -23
183 -50 -23
184 33 26
185 33 26
186 33 26
187 9 28
188 9 28
189 9 28
190 9 28
191 -41 29
192 -41 29
193 31 32
194 31 32
195 31 32
196 -26 5
197 -26 5
198 -26 5
199 -26 5
200 -26 5
201 -26 5
202 -26 5
203 45 -41
204 45 -41
205 45 -41
206 -14 -3
207 -14 -3
208 -16 -17
209 -16 -17
210 43 -13
211 43 -13
212 43 -13
213 43 -13
214 43 -34
215 43 -34
216 43 -34
217 43 -34
218 43 -34
219 3 -38
220 35 36
221 35 36
222 35 36
223 35 36
224 35 36
225 35 36
226 8 -23
227 8 -23
228 8 -23
229 37 30
230 37 30
231 37 30
232 37 30
233 -32 10
234 -32 10
235 -32 10
236 -32 10
237 -32 10
238 -32 2
239 -32 2
240 -32 2
241 -32 2
242 -32 2
243 -45 39
244 -45 39
245 -45 39
246 -27 -19
247 -27 -19
248 -27 -19
249 -27 -19
250 -27 -19
251 -27 -19
252 -43 -3
253 -43 -3
254 10 17
255 10 17
256 10 17
257 10 17
258 10 17
259 -48 50
260 -48 50
261 -48 50
262 -2 15
263 -2 15
264 -2 15
265 -2 15
266 -2 15
267 -2 15
268 -48 -46
269 -48 -46
270 -48 -46
271 -48 -46
272 -50 29
273 -50 29
274 -50 29
275 19 43
276 19 43
277 19 43
278 -15 -6
279 -15 -6
280 -15 -6
281 -15 -6
282 -15 -6
283 -15 -6
284 7 -5
285 7 -5
286 7 -5
287 -17 12
288 -17 12
289 -17 12
290 35 43
291 35 43
292 35 43
293 35 43
294 -8 7
295 -8 7
296 -8 7
297 -8 7
298 -8 7
299 18 35
300 18 35
301 18 35
302 39 -17
303 39 -17
304 2 -39
305 2 -39
306 11 30
307 11 30
308 11 30
309 11 30
310 11 30
311 11 30
312 11 30
313 -33 18
314 -33 18
315 -33 18
316 3 48
317 3 48
318 3 48
319 3 48
320 3 48
321 -25 8
322 -1 21
323 -1 21
324 -1 21
325 10 -11
326 10 -11
327 10 -11
328 19 26
329 19 26
330 -8 20
331 -8 20
332 -8 20
333 -8 20
334 -8 20
335 -12 -39
336 -12 -39
337 -12 -39
338 -12 -39
339 -12 -39
340 -12 -39
341 -12 -39
342 9 45
343 9 45
344 9 45
345 9 45
346 9 45
347 46 -49
348 46 -49
349 46 -49
350 46 -49
351 -43 -18
352 -43 -18
353 -43 -18
354 -17 -8
355 -17 -8
356 -17 -8
357 41 -11
358 41 -11
359 3 5
360 3 5
361 3 5
362 3 5
363 14 8
364 14 8
365 14 8
366 -34 -18
367 -34 -18
368 -34 -18
369 -8 3
370 -8 3
371 -8 3
372 -8 3
373 -8 3
374 -8 3
375 -8 3
376 -44 7
377 -44 7
378 -44 7
379 -44 7
380 -44 7
381 -44 7
382 -33 28
383 -33 28
384 -33 28
385 -33 28
386 -33 28
387 -33 28
388 31 -41
389 31 -41
390 -3 -14
391 -3 -14
392 -3 -14
393 -3 -14
394 -3 -14
395 -3 -14
396 19 -47
397 19 -47
398 19 -47
399 19 -47
400 19 -47
DEMAND_SECTION
1 0
2 20
3 10
4 1
5 20
6 20
7 1
8 1
9 1
10 20
11 20
12 10
13 20
14 20
15 1
16 1
17 20
18 5
19 1
20 1
21 1
22 20
23 10
24 5
25 1
26 1
27 1
28 1
29 20
30 20
31 10
32 20
33 1
34 1
35 20
36 10
37 1
38 20
39 1
40 1
41 1
42 1
43 20
44 20
45 5
46 20
47 5
48 1
49 1
50 1
51 1
52 20
53 10
54 1
55 20
56 20
57 1
58 1
59 1
60 1
61 20
62 1
63 20
64 5
65 1
66 1
67 20
68 20
69 20
70 10
71 1
72 20
73 20
74 5
75 1
76 1
77 1
78 10
79 5
80 1
81 1
82 1
83 10
84 5
85 1
86 1
87 1
88 20
89 10
90 1
91 10
92 1
93 1
94 20
95 20
96 5
97 1
98 20
99 5
100 1
101 1
102 1
103 1
104 20
105 1
106 20
107 10
108 5
109 20
110 20
111 1
112 1
113 1
114 1
115 20
116 1
117 1
118 20
119 10
120 20
121 5
122 1
123 1
124 1
125 20
126 20
127 5
128 1
129 1
130 1
131 1
132 10
133 1
134 1
135 1
136 10
137 1
138 1
139 1
140 20
141 20
142 10
143 20
144 10
145 20
146 10
147 1
148 20
149 10
150 5
151 1
152 1
153 1
154 1
155 20
156 5
157 1
158 1
159 1
160 10
161 1
162 1
163 1
164 20
165 5
166 1
167 1
168 20
169 20
170 1
171 1
172 1
173 1
174 20
175 10
176 5
177 1
178 1
179 1
180 1
181 20
182 1
183 1
184 20
185 5
186 1
187 20
188 1
189 1
190 1
191 20
192 1
193 20
194 10
195 1
196 20
197 20
198 5
199 1
200 1
201 1
202 1
203 10
204 5
205 1
206 10
207 5
208 20
209 1
210 10
211 5
212 1
213 1
214 20
215 10
216 5
217 1
218 1
219 20
220 20
221 10
222 5
223 1
224 1
225 1
226 10
227 5
228 1
229 20
230 20
231 1
232 1
233 10
234 5
235 1
236 1
237 1
238 20
239 10
240 5
241 1
242 1
243 20
244 1
245 1
246 20
247 10
248 5
249 1
250 1
251 1
252 20
253 20
254 10
255 5
256 1
257 1
258 1
259 20
260 5
261 1
262 20
263 10
264 1
265 1
266 1
267 1
268 20
269 5
270 1
271 1
272 20
273 1
274 1
275 10
276 1
277 1
278 20
279 20
280 5
281 1
282 1
283 1
284 20
285 5
286 1
287 20
288 20
289 10
290 20
291 1
292 1
293 1
294 20
295 20
296 1
297 1
298 1
299 20
300 5
301 1
302 20
303 20
304 10
305 5
306 20
307 10
308 5
309 1
310 1
311 1
312 1
313 20
314 1
315 1
316 20
317 20
318 1
319 1
320 1
321 20
322 20
323 10
324 1
325 20
326 1
327 1
328 10
329 5
330 20
331 10
332 5
333 1
334 1
335 20
336 20
337 5
338 1
339 1
340 1
341 1
342 10
343 5
344 1
345 1
346 1
347 20
348 20
349 1
350 1
351 20
352 20
353 1
354 20
355 1
356 1
357 20
358 10
359 20
360 20
361 5
362 1
363 20
364 10
365 5
366 20
367 20
368 1
369 20
370 10
371 5
372 1
373 1
374 1
375 1
376 20
377 10
378 1
379 1
380 1
381 1
382 20
383 10
384 5
385 1
386 1
387 1
388 20
389 20
390 20
391 20
392 5
393 1
394 1
395 1
396 10
397 5
398 1
399 1
400 1
DEPOT_SECTION
1
-1
EOF