Normalized Data/p03_24_normalized_split0.sol
399 -2 218 303 304 132 133 131 134 33 32 31 78 77 81 80 79 -3 1 72 76 73 75 74 71 69 70 68 -16 17 18 19 20 352 351 350 181 180 182 354 355 279 280 282 -22 23 27 53 51 52 391 390 392 389 393 394 -24 25 26 21 353 278 281 277 206 205 -30 28 29 293 294 295 297 296 -36 35 34 291 292 289 290 93 96 94 95 -39 37 40 41 38 251 252 380 378 379 375 377 376 -44 43 163 164 140 139 141 -60 61 334 338 340 335 105 107 106 -85 84 86 82 83 42 142 143 102 97 100 98 99 101 264 266 -88 87 89 185 183 118 117 327 328 257 255 -90 91 92 302 301 209 212 210 211 356 357 -113 110 112 8 7 271 273 272 47 45 46 49 50 48 190 191 312 313 314 -114 10 11 9 135 287 -115 116 162 161 159 160 166 165 145 146 144 258 259 260 244 242 243 -119 121 120 123 122 55 59 56 58 54 57 175 228 -129 130 127 128 126 124 125 369 370 371 374 368 372 373 -169 172 167 168 170 171 67 66 363 -184 104 103 173 174 176 177 179 178 223 219 224 221 222 220 -186 189 187 188 310 308 306 307 305 309 311 253 256 362 364 -198 199 201 195 197 196 200 239 240 241 237 238 -202 203 204 346 347 349 348 155 157 158 154 156 214 217 216 -208 207 247 249 246 245 248 250 366 367 365 -213 215 388 387 399 398 396 397 395 226 225 227 -231 230 229 15 12 13 14 194 193 192 254 -236 235 233 234 232 6 5 4 383 384 381 382 385 386 -262 261 263 265 321 322 323 331 333 330 332 329 -268 267 269 270 147 150 152 149 151 148 153 63 65 62 64 336 337 339 -288 286 138 137 136 108 111 109 320 -299 300 298 275 276 274 345 342 344 343 341 317 319 318 315 316 -326 325 324 284 285 283 359 360 361 358 0 





OBJ=
2930.888
BEST_KNOWN=
0.000